n=40;
demand=2;
horizon=40;
est=[35,11,14,3,38,8,7,23,8,11,19,28,33,21,7,38,7,36,24,23,17,0,32,35,13,13,2,24,7,19,8,39,0,39,31,23,6,26,7,9];
processing_time=[3,15,19,1,2,29,27,9,26,15,15,6,7,18,19,1,4,4,6,2,17,10,8,5,3,11,37,7,30,20,15,1,6,1,8,13,34,2,12,7];
lct=[40,34,38,27,40,40,36,39,38,33,36,39,40,39,36,39,28,40,39,27,36,37,40,40,22,27,40,34,39,39,33,40,29,40,40,40,40,36,28,40];
